Normalized Data/p10_3070_tsplib0_normalized_split0.vrp
NAME:p10_3070_tsplib0_NORMALIZED_split
BEST_KNOWN: 0
COMMENT: 0
DIMENSION: 1032
CAPACITY: 100
EDGE_WEIGHT_FORMAT: FUNCTION
EDGE_WEIGHT_TYPE: EXACT_2D
NODE_COORD_SECTION
1 0.00000 0.00000
2 -13 -13
3 -13 -13
4 -13 -13
5 -13 -13
6 -13 -13
7 -13 -13
8 -13 -13
9 1 -9
10 1 -9
11 1 -9
12 -14 10
13 -14 10
14 -14 10
15 -14 10
16 -14 10
17 -14 10
18 -14 10
19 10 0
20 10 0
21 10 0
22 10 0
23 10 0
24 20 -15
25 20 -15
26 20 -15
27 20 -15
28 20 -15
29 -2 -1
30 -2 -1
31 -2 -1
32 -2 -1
33 -2 -1
34 -2 -1
35 -2 -1
36 15 15
37 15 15
38 15 15
39 15 15
40 15 15
41 15 15
42 15 15
43 20 10
44 20 10
45 20 10
46 20 10
47 20 10
48 20 10
49 -9 24
50 -9 24
51 -9 24
52 -9 24
53 -9 24
54 -9 24
55 5 31
56 5 31
57 5 31
58 20 30
59 20 30
60 20 30
61 20 30
62 20 30
63 0 16
64 0 16
65 0 16
66 27 0
67 27 0
68 27 0
69 27 0
70 27 0
71 27 0
72 27 22
73 27 22
74 27 22
75 27 -11
76 27 -11
77 27 -11
78 27 -11
79 27 -11
80 27 -11
81 27 -11
82 -14 1
83 -14 1
84 -14 1
85 -2 9
86 -2 9
87 -2 9
88 -2 9
89 -2 9
90 -26 21
91 -26 21
92 -26 21
93 27 13
94 27 13
95 27 13
96 27 13
97 27 13
98 27 13
99 27 13
100 31 -21
101 31 -21
102 31 -21
103 31 -21
104 9 -22
105 9 -22
106 9 -22
107 9 -22
108 9 -22
109 9 -22
110 -9 -22
111 -9 -22
112 -9 -22
113 -9 -22
114 -24 -7
115 -24 -7
116 -24 -7
117 -24 -7
118 -24 -7
119 -28 8
120 -28 8
121 -28 8
122 -28 8
123 -28 8
124 -28 8
125 -18 29
126 -18 29
127 -18 29
128 -18 29
129 6 11
130 6 11
131 6 11
132 6 11
133 6 11
134 6 11
135 6 11
136 6 11
137 20 -1
138 20 -1
139 20 -1
140 0 -19
141 0 -19
142 0 -19
143 0 -19
144 17 -9
145 17 -9
146 17 -9
147 17 -9
148 8 -9
149 8 -9
150 8 -9
151 8 -9
152 8 -9
153 8 -9
154 -4 41
155 -4 41
156 -4 41
157 -4 41
158 -4 41
159 -4 41
160 -4 41
161 -13 18
162 -13 18
163 -13 18
164 -13 18
165 -13 18
166 -9 -6
167 -9 -6
168 -9 -6
169 -9 -6
170 -9 -6
171 -9 -6
172 15 5
173 15 5
174 15 5
175 15 5
176 15 5
177 15 5
178 20 15
179 20 15
180 20 15
181 20 15
182 20 15
183 20 15
184 19 -25
185 19 -25
186 19 -25
187 19 -25
188 19 -25
189 19 -25
190 19 -25
191 25 -20
192 25 -20
193 25 -20
194 25 -20
195 12 31
196 12 31
197 12 31
198 12 31
199 12 31
200 12 31
201 12 31
202 -5 25
203 -5 25
204 -5 25
205 -5 25
206 -5 25
207 -5 25
208 -5 25
209 -5 15
210 -5 15
211 -5 15
212 -5 15
213 -5 15
214 -5 15
215 -23 -18
216 -23 -18
217 -23 -18
218 -23 -18
219 -23 -18
220 -20 -21
221 -20 -21
222 -20 -21
223 -20 -21
224 -19 -16
225 -19 -16
226 -19 -16
227 -19 -16
228 -14 13
229 -14 13
230 -14 13
231 -14 13
232 -14 13
233 15 -5
234 15 -5
235 15 -5
236 15 -5
237 16 7
238 16 7
239 16 7
240 15 -20
241 15 -20
242 15 -20
243 15 -20
244 15 -20
245 15 -20
246 15 -20
247 13 -14
248 13 -14
249 13 -14
250 13 -14
251 13 -14
252 -23 3
253 -23 3
254 -23 3
255 -23 3
256 -23 3
257 -23 3
258 2 17
259 2 17
260 2 17
261 2 17
262 2 17
263 2 17
264 2 17
265 14 14
266 14 14
267 14 14
268 14 14
269 14 14
270 17 29
271 17 29
272 17 29
273 17 29
274 17 29
275 -15 -9
276 -15 -9
277 -15 -9
278 -15 -9
279 -15 -9
280 5 -5
281 5 -5
282 5 -5
283 5 -5
284 5 -5
285 -14 12
286 -14 12
287 -14 12
288 -14 12
289 -14 12
290 -14 12
291 -14 12
292 -14 12
293 -18 28
294 -18 28
295 -18 28
296 -18 28
297 -18 28
298 -18 28
299 -18 28
300 -18 28
301 -4 27
302 -4 27
303 -4 27
304 -4 27
305 17 -2
306 17 -2
307 17 -2
308 17 -2
309 17 -2
310 17 -2
311 17 -2
312 16 -14
313 16 -14
314 16 -14
315 16 -14
316 7 6
317 7 6
318 7 6
319 7 6
320 7 6
321 -4 -3
322 -4 -3
323 -4 -3
324 -4 -3
325 -30 -10
326 -30 -10
327 -23 7
328 -23 7
329 -23 7
330 -23 7
331 1 -19
332 1 -19
333 1 -19
334 17 6
335 17 6
336 17 6
337 17 6
338 17 6
339 17 6
340 -8 -12
341 -8 -12
342 -8 -12
343 -8 -12
344 -8 -12
345 -8 -12
346 -8 -12
347 -18 -2
348 -18 -2
349 -18 -2
350 -18 -2
351 -18 -2
352 -18 -2
353 -18 -2
354 -22 -22
355 -22 -22
356 -22 -22
357 -22 -22
358 -22 -22
359 22 23
360 22 23
361 22 23
362 22 23
363 22 23
364 22 23
365 22 23
366 22 23
367 27 7
368 27 7
369 27 7
370 27 7
371 27 7
372 27 7
373 27 7
374 7 22
375 7 22
376 7 22
377 7 22
378 7 22
379 7 22
380 -19 22
381 -19 22
382 -19 22
383 -19 22
384 -27 17
385 -27 17
386 -27 17
387 -27 17
388 -27 17
389 -27 17
390 -28 3
391 -28 3
392 -28 3
393 -28 3
394 -28 3
395 -28 3
396 -28 3
397 -28 3
398 -8 33
399 -8 33
400 -8 33
401 -8 33
402 -5 13
403 -5 13
404 -5 13
405 -5 13
406 -5 13
407 8 32
408 8 32
409 8 32
410 8 32
411 8 32
412 8 32
413 23 13
414 23 13
415 23 13
416 23 13
417 23 13
418 23 13
419 23 13
420 23 -8
421 23 -8
422 23 -8
423 23 -8
424 23 -8
425 2 34
426 2 34
427 2 34
428 2 34
429 2 34
430 3 11
431 3 11
432 3 11
433 3 11
434 3 11
435 11 -25
436 11 -25
437 11 -25
438 26 -2
439 26 -2
440 26 -2
441 26 -2
442 26 -2
443 26 -2
444 27 28
445 27 28
446 27 28
447 27 28
448 28 34
449 28 34
450 28 34
451 28 34
452 28 34
453 28 34
454 28 34
455 28 34
456 -3 -13
457 -3 -13
458 -3 -13
459 -3 -13
460 10 0
461 10 0
462 10 0
463 10 0
464 10 0
465 10 0
466 10 0
467 10 0
468 24 -20
469 24 -20
470 24 -20
471 24 -20
472 24 -20
473 -30 -29
474 -30 -29
475 -30 -29
476 -30 -29
477 -30 -29
478 -30 -29
479 -30 -29
480 -25 -18
481 -25 -18
482 -25 -18
483 -25 -18
484 -25 -18
485 -25 -18
486 -14 -25
487 -14 -25
488 -14 -25
489 -14 -25
490 -14 -25
491 -30 29
492 -30 29
493 -30 29
494 -30 29
495 -30 29
496 -30 29
497 -5 -20
498 -5 -20
499 -5 -20
500 -5 -20
501 -5 -20
502 4 -25
503 4 -25
504 4 -25
505 4 -25
506 4 -25
507 4 -25
508 -3 4
509 -3 4
510 -3 4
511 -3 4
512 -3 4
513 -3 4
514 -10 -3
515 -10 -3
516 -10 -3
517 -10 -3
518 -10 20
519 -10 20
520 -10 20
521 13 -7
522 13 -7
523 13 -7
524 13 -7
525 13 -7
526 21 2
527 21 2
528 21 2
529 6 14
530 6 14
531 6 14
532 6 14
533 6 14
534 6 14
535 0 -18
536 0 -18
537 0 -18
538 0 -18
539 0 -18
540 20 10
541 20 10
542 20 10
543 20 10
544 20 -15
545 20 -15
546 20 -15
547 -20 -5
548 -20 -5
549 -20 -5
550 -20 -5
551 -20 -5
552 -20 -5
553 -20 -5
554 -10 -5
555 -10 -5
556 -10 -5
557 -10 -5
558 -10 -5
559 -15 15
560 -15 15
561 -15 15
562 -15 15
563 -15 15
564 -15 15
565 -25 8
566 -25 8
567 -25 8
568 -25 8
569 -25 8
570 20 25
571 20 25
572 20 25
573 20 25
574 20 25
575 -5 25
576 -5 25
577 -5 25
578 -5 25
579 -15 30
580 -15 30
581 -15 30
582 -15 30
583 -15 30
584 15 0
585 15 0
586 15 0
587 15 0
588 15 0
589 -5 -10
590 -5 -10
591 -5 -10
592 -5 -10
593 -5 -10
594 -20 -25
595 -20 -25
596 -5 -30
597 -5 -30
598 -5 -30
599 -5 -30
600 -25 -15
601 -25 -15
602 -25 -15
603 -25 -15
604 -25 -15
605 -25 -15
606 -30 -5
607 -30 -5
608 -30 -5
609 -15 5
610 -15 5
611 -15 5
612 -15 5
613 -15 5
614 -15 5
615 -20 25
616 -20 25
617 -20 25
618 -20 25
619 -20 25
620 -20 25
621 10 30
622 10 30
623 10 30
624 10 -15
625 10 -15
626 10 -15
627 10 -15
628 10 -15
629 10 -15
630 10 -25
631 10 -25
632 10 -25
633 10 -25
634 10 -25
635 20 -30
636 20 -30
637 20 -30
638 20 -30
639 20 -30
640 20 -30
641 20 -30
642 30 0
643 30 0
644 30 0
645 30 0
646 30 -15
647 30 -15
648 30 -15
649 10 -5
650 10 -5
651 10 -5
652 10 -5
653 10 -5
654 0 5
655 0 5
656 0 5
657 0 5
658 6 2
659 6 2
660 6 2
661 6 2
662 6 2
663 6 2
664 6 2
665 29 7
666 29 7
667 29 7
668 29 7
669 29 7
670 29 7
671 29 7
672 5 25
673 5 25
674 5 25
675 5 25
676 5 25
677 5 25
678 -4 17
679 -4 17
680 -4 17
681 -4 17
682 -4 17
683 -4 17
684 0 34
685 0 34
686 0 34
687 0 34
688 18 17
689 18 17
690 18 17
691 18 17
692 18 17
693 18 17
694 18 17
695 30 20
696 30 20
697 30 20
698 30 20
699 28 30
700 28 30
701 28 30
702 28 30
703 28 30
704 28 30
705 28 30
706 28 30
707 -33 25
708 -33 25
709 -33 25
710 -33 25
711 -15 -15
712 -15 -15
713 -15 -15
714 -15 -15
715 -15 -15
716 -15 -15
717 -30 -30
718 -30 -30
719 -30 -30
720 -30 -30
721 -30 -30
722 25 -23
723 25 -23
724 25 -23
725 25 -23
726 5 -10
727 5 -10
728 5 -10
729 5 -10
730 7 -28
731 7 -28
732 7 -28
733 7 -28
734 7 -28
735 7 -28
736 -11 -23
737 -11 -23
738 -11 -23
739 -11 -23
740 -11 -23
741 -12 -32
742 -12 -32
743 -12 -32
744 -12 -32
745 -12 -32
746 -12 -32
747 -12 -32
748 -24 -21
749 -24 -21
750 -24 -21
751 -24 -21
752 -24 -21
753 -24 -21
754 -29 3
755 -29 3
756 -29 3
757 -29 3
758 -29 3
759 -33 13
760 -33 13
761 -33 13
762 -33 13
763 -33 13
764 -27 21
765 -27 21
766 -27 21
767 -27 21
768 -27 21
769 -27 21
770 -22 17
771 -22 17
772 -22 17
773 -22 17
774 -22 17
775 -22 17
776 -22 17
777 -22 17
778 -29 33
779 -29 33
780 -29 33
781 -29 33
782 -29 33
783 -29 33
784 12 12
785 12 12
786 12 12
787 12 12
788 12 12
789 14 23
790 14 23
791 14 23
792 14 23
793 14 23
794 14 23
795 -8 8
796 -8 8
797 -8 8
798 -8 8
799 -8 8
800 -8 8
801 -8 8
802 2 -4
803 2 -4
804 2 -4
805 2 -4
806 2 -4
807 2 -4
808 22 -6
809 22 -6
810 22 -6
811 22 -6
812 22 -6
813 22 -6
814 22 -6
815 22 -6
816 28 -12
817 28 -12
818 28 -12
819 28 -12
820 28 -12
821 18 -23
822 18 -23
823 18 -23
824 18 -23
825 18 -23
826 -3 -23
827 -3 -23
828 -3 -23
829 1 -9
830 1 -9
831 1 -9
832 1 -9
833 1 -9
834 1 -9
835 -14 -11
836 -14 -11
837 -14 -11
838 -14 -11
839 -14 -11
840 -14 -11
841 -18 -1
842 -18 -1
843 -18 -1
844 -18 -1
845 -18 -1
846 -18 -1
847 -23 -11
848 -23 -11
849 -23 -11
850 -23 -11
851 -11 23
852 -11 23
853 -8 34
854 -8 34
855 -8 34
856 -20 42
857 -20 42
858 -20 42
859 27 42
860 27 42
861 27 42
862 14 38
863 14 38
864 32 -30
865 32 -30
866 32 -30
867 21 4
868 21 4
869 21 4
870 21 4
871 21 4
872 21 4
873 21 4
874 21 4
875 2 12
876 2 12
877 2 12
878 2 12
879 2 12
880 2 12
881 2 12
882 2 21
883 2 21
884 2 21
885 22 33
886 22 33
887 12 -19
888 12 -19
889 12 -19
890 9 -18
891 9 -18
892 9 -18
893 9 -18
894 9 -18
895 9 -18
896 11 -22
897 11 -22
898 11 -22
899 11 -22
900 11 -22
901 11 -22
902 11 -22
903 14 -24
904 14 -24
905 14 -24
906 14 -24
907 14 -24
908 14 -24
909 14 7
910 14 7
911 14 7
912 14 7
913 14 7
914 14 7
915 14 7
916 18 8
917 18 8
918 18 8
919 18 8
920 18 8
921 26 17
922 26 17
923 26 17
924 26 17
925 22 13
926 22 13
927 22 13
928 22 13
929 21 2
930 21 2
931 21 2
932 21 2
933 21 2
934 21 2
935 20 19
936 20 19
937 20 19
938 20 19
939 20 19
940 20 19
941 -20 12
942 -20 12
943 -20 12
944 -20 12
945 -20 12
946 -21 2
947 -21 2
948 -21 2
949 -21 2
950 -24 -4
951 -24 -4
952 -24 -4
953 -24 -4
954 -24 -4
955 -24 -4
956 -19 -13
957 -19 -13
958 -31 -17
959 -31 -17
960 -7 -17
961 -7 -17
962 -7 -17
963 -9 17
964 -9 17
965 -9 17
966 -9 17
967 -9 17
968 -9 17
969 -9 0
970 -9 0
971 -9 0
972 -9 0
973 -9 0
974 -9 0
975 -4 32
976 -4 32
977 -4 32
978 -4 32
979 -4 32
980 -4 32
981 -20 -16
982 -20 -16
983 -20 -16
984 -20 -16
985 -13 -13
986 -13 -13
987 -13 -13
988 -13 -13
989 -13 -13
990 -13 -13
991 -13 -13
992 -17 -11
993 -17 -11
994 -17 -11
995 -17 -11
996 -17 -11
997 -9 -8
998 -9 -8
999 -9 -8
1000 -9 -8
1001 -9 -8
1002 -10 -11
1003 -10 -11
1004 -10 -11
1005 -10 -11
1006 -13 -8
1007 -13 -8
1008 -13 -8
1009 -13 -8
1010 -10 -14
1011 -10 -14
1012 -10 -14
1013 -10 -14
1014 -10 -14
1015 -10 -14
1016 -16 -14
1017 -16 -14
1018 -16 -14
1019 -16 -14
1020 -16 -14
1021 -16 -14
1022 -16 -14
1023 -15 -9
1024 -15 -9
1025 -15 -9
1026 -15 -9
1027 -15 -9
1028 -15 -9
1029 -17 -17
1030 -17 -17
1031 -17 -17
1032 -17 -17
DEMAND_SECTION
1 0
2 20
3 20
4 20
5 1
6 1
7 1
8 1
9 20
10 20
11 5
12 20
13 10
14 5
15 1
16 1
17 1
18 1
19 20
20 20
21 10
22 1
23 1
24 20
25 20
26 20
27 5
28 1
29 20
30 20
31 20
32 1
33 1
34 1
35 1
36 20
37 20
38 5
39 1
40 1
41 1
42 1
43 20
44 10
45 1
46 1
47 1
48 1
49 20
50 10
51 5
52 1
53 1
54 1
55 20
56 10
57 1
58 20
59 20
60 20
61 1
62 1
63 20
64 20
65 5
66 20
67 20
68 5
69 1
70 1
71 1
72 20
73 20
74 10
75 20
76 20
77 10
78 5
79 1
80 1
81 1
82 20
83 20
84 1
85 20
86 10
87 1
88 1
89 1
90 20
91 20
92 10
93 20
94 20
95 20
96 1
97 1
98 1
99 1
100 20
101 20
102 10
103 1
104 20
105 10
106 1
107 1
108 1
109 1
110 20
111 20
112 10
113 5
114 20
115 20
116 10
117 5
118 1
119 20
120 20
121 10
122 1
123 1
124 1
125 20
126 20
127 20
128 1
129 20
130 20
131 10
132 5
133 1
134 1
135 1
136 1
137 20
138 10
139 1
140 20
141 20
142 20
143 1
144 20
145 10
146 5
147 1
148 20
149 10
150 1
151 1
152 1
153 1
154 20
155 20
156 20
157 1
158 1
159 1
160 1
161 20
162 20
163 20
164 1
165 1
166 20
167 20
168 20
169 1
170 1
171 1
172 20
173 10
174 5
175 1
176 1
177 1
178 20
179 20
180 20
181 1
182 1
183 1
184 20
185 20
186 5
187 1
188 1
189 1
190 1
191 20
192 20
193 20
194 1
195 20
196 20
197 5
198 1
199 1
200 1
201 1
202 20
203 20
204 5
205 1
206 1
207 1
208 1
209 20
210 20
211 20
212 1
213 1
214 1
215 20
216 10
217 5
218 1
219 1
220 20
221 10
222 1
223 1
224 20
225 20
226 10
227 5
228 20
229 20
230 10
231 5
232 1
233 20
234 20
235 20
236 5
237 20
238 20
239 1
240 20
241 20
242 5
243 1
244 1
245 1
246 1
247 20
248 20
249 5
250 1
251 1
252 20
253 20
254 20
255 1
256 1
257 1
258 20
259 20
260 10
261 1
262 1
263 1
264 1
265 20
266 20
267 10
268 5
269 1
270 20
271 20
272 10
273 5
274 1
275 20
276 10
277 1
278 1
279 1
280 20
281 20
282 20
283 5
284 1
285 20
286 20
287 10
288 5
289 1
290 1
291 1
292 1
293 20
294 20
295 10
296 5
297 1
298 1
299 1
300 1
301 20
302 20
303 1
304 1
305 20
306 20
307 10
308 5
309 1
310 1
311 1
312 20
313 20
314 5
315 1
316 20
317 20
318 1
319 1
320 1
321 20
322 20
323 20
324 5
325 20
326 20
327 20
328 20
329 1
330 1
331 20
332 20
333 1
334 20
335 20
336 1
337 1
338 1
339 1
340 20
341 20
342 5
343 1
344 1
345 1
346 1
347 20
348 20
349 20
350 1
351 1
352 1
353 1
354 20
355 10
356 1
357 1
358 1
359 20
360 20
361 20
362 5
363 1
364 1
365 1
366 1
367 20
368 20
369 20
370 1
371 1
372 1
373 1
374 20
375 20
376 20
377 5
378 1
379 1
380 20
381 20
382 20
383 5
384 20
385 20
386 20
387 1
388 1
389 1
390 20
391 20
392 20
393 5
394 1
395 1
396 1
397 1
398 20
399 10
400 1
401 1
402 20
403 20
404 1
405 1
406 1
407 20
408 20
409 10
410 1
411 1
412 1
413 20
414 20
415 10
416 5
417 1
418 1
419 1
420 20
421 20
422 10
423 1
424 1
425 20
426 20
427 20
428 1
429 1
430 20
431 20
432 10
433 5
434 1
435 20
436 20
437 1
438 20
439 20
440 10
441 5
442 1
443 1
444 20
445 20
446 10
447 5
448 20
449 20
450 20
451 5
452 1
453 1
454 1
455 1
456 20
457 20
458 20
459 1
460 20
461 20
462 20
463 5
464 1
465 1
466 1
467 1
468 20
469 20
470 20
471 1
472 1
473 20
474 20
475 20
476 1
477 1
478 1
479 1
480 20
481 10
482 1
483 1
484 1
485 1
486 20
487 20
488 20
489 1
490 1
491 20
492 20
493 10
494 1
495 1
496 1
497 20
498 10
499 5
500 1
501 1
502 20
503 20
504 20
505 5
506 1
507 1
508 20
509 20
510 10
511 5
512 1
513 1
514 20
515 20
516 20
517 1
518 20
519 20
520 20
521 20
522 20
523 5
524 1
525 1
526 20
527 20
528 20
529 20
530 10
531 1
532 1
533 1
534 1
535 20
536 20
537 10
538 5
539 1
540 20
541 20
542 20
543 1
544 20
545 20
546 20
547 20
548 20
549 20
550 5
551 1
552 1
553 1
554 20
555 20
556 5
557 1
558 1
559 20
560 10
561 5
562 1
563 1
564 1
565 20
566 10
567 1
568 1
569 1
570 20
571 20
572 10
573 1
574 1
575 20
576 20
577 1
578 1
579 20
580 20
581 20
582 5
583 1
584 20
585 20
586 20
587 5
588 1
589 20
590 20
591 10
592 5
593 1
594 20
595 10
596 20
597 20
598 1
599 1
600 20
601 20
602 10
603 5
604 1
605 1
606 20
607 20
608 5
609 20
610 20
611 1
612 1
613 1
614 1
615 20
616 20
617 20
618 1
619 1
620 1
621 20
622 20
623 20
624 20
625 20
626 20
627 5
628 1
629 1
630 20
631 20
632 1
633 1
634 1
635 20
636 20
637 5
638 1
639 1
640 1
641 1
642 20
643 10
644 1
645 1
646 20
647 20
648 5
649 20
650 20
651 10
652 5
653 1
654 20
655 20
656 10
657 1
658 20
659 20
660 20
661 5
662 1
663 1
664 1
665 20
666 20
667 5
668 1
669 1
670 1
671 1
672 20
673 20
674 10
675 5
676 1
677 1
678 20
679 20
680 5
681 1
682 1
683 1
684 20
685 20
686 10
687 5
688 20
689 20
690 10
691 1
692 1
693 1
694 1
695 20
696 20
697 20
698 1
699 20
700 20
701 10
702 5
703 1
704 1
705 1
706 1
707 20
708 20
709 20
710 1
711 20
712 20
713 10
714 1
715 1
716 1
717 20
718 20
719 10
720 1
721 1
722 20
723 20
724 1
725 1
726 20
727 20
728 1
729 1
730 20
731 20
732 20
733 5
734 1
735 1
736 20
737 20
738 10
739 1
740 1
741 20
742 20
743 10
744 1
745 1
746 1
747 1
748 20
749 20
750 10
751 1
752 1
753 1
754 20
755 10
756 5
757 1
758 1
759 20
760 20
761 10
762 5
763 1
764 20
765 20
766 10
767 5
768 1
769 1
770 20
771 20
772 20
773 5
774 1
775 1
776 1
777 1
778 20
779 10
780 5
781 1
782 1
783 1
784 20
785 20
786 10
787 1
788 1
789 20
790 20
791 1
792 1
793 1
794 1
795 20
796 20
797 5
798 1
799 1
800 1
801 1
802 20
803 10
804 1
805 1
806 1
807 1
808 20
809 20
810 20
811 5
812 1
813 1
814 1
815 1
816 20
817 20
818 5
819 1
820 1
821 20
822 20
823 5
824 1
825 1
826 20
827 10
828 1
829 20
830 20
831 10
832 5
833 1
834 1
835 20
836 10
837 1
838 1
839 1
840 1
841 20
842 10
843 5
844 1
845 1
846 1
847 20
848 20
849 10
850 1
851 20
852 10
853 20
854 10
855 5
856 20
857 10
858 1
859 20
860 10
861 5
862 20
863 10
864 20
865 20
866 20
867 20
868 20
869 20
870 5
871 1
872 1
873 1
874 1
875 20
876 10
877 5
878 1
879 1
880 1
881 1
882 20
883 10
884 1
885 20
886 10
887 20
888 20
889 20
890 20
891 20
892 5
893 1
894 1
895 1
896 20
897 20
898 10
899 1
900 1
901 1
902 1
903 20
904 10
905 5
906 1
907 1
908 1
909 20
910 20
911 10
912 1
913 1
914 1
915 1
916 20
917 20
918 5
919 1
920 1
921 20
922 20
923 10
924 5
925 20
926 20
927 10
928 1
929 20
930 20
931 5
932 1
933 1
934 1
935 20
936 20
937 20
938 1
939 1
940 1
941 20
942 20
943 10
944 5
945 1
946 20
947 20
948 1
949 1
950 20
951 20
952 10
953 1
954 1
955 1
956 20
957 20
958 20
959 20
960 20
961 20
962 20
963 20
964 20
965 20
966 1
967 1
968 1
969 20
970 10
971 5
972 1
973 1
974 1
975 20
976 20
977 5
978 1
979 1
980 1
981 20
982 20
983 5
984 1
985 20
986 20
987 5
988 1
989 1
990 1
991 1
992 20
993 20
994 20
995 5
996 1
997 20
998 20
999 20
1000 5
1001 1
1002 20
1003 10
1004 5
1005 1
1006 20
1007 10
1008 1
1009 1
1010 20
1011 20
1012 10
1013 1
1014 1
1015 1
1016 20
1017 20
1018 20
1019 1
1020 1
1021 1
1022 1
1023 20
1024 20
1025 10
1026 5
1027 1
1028 1
1029 20
1030 20
1031 1
1032 1
DEPOT_SECTION
1
-1
EOF