Normalized Data/p10_3070_tsplib0_normalized_split0.sol
1031 -5 988 2 987 990 3 985 984 7 1003 1002 -8 828 831 830 833 829 727 725 728 -17 13 290 289 285 287 286 229 231 230 227 228 -20 22 465 464 459 461 463 19 460 466 -23 543 545 25 544 -24 191 192 468 469 -27 26 101 100 102 99 723 722 724 721 -29 31 32 33 34 323 322 321 320 -30 28 655 656 653 654 -37 692 687 691 689 180 178 181 177 179 182 -38 39 444 698 703 704 860 858 859 269 792 -61 59 58 57 60 270 273 272 271 791 790 -63 62 64 257 262 259 258 261 260 263 -66 67 70 68 69 65 642 641 644 643 807 -77 818 817 819 645 646 647 193 190 470 471 467 -84 880 877 878 874 875 879 876 429 430 433 -86 87 85 88 212 208 213 211 209 210 403 404 401 -89 91 90 766 768 764 386 387 384 388 -104 108 105 106 103 107 629 633 436 434 435 901 898 893 892 -111 110 112 489 485 487 488 486 -113 116 114 954 951 950 949 953 952 -124 125 127 126 299 294 295 297 292 -130 128 133 131 135 129 134 132 319 316 315 -138 136 137 441 440 439 438 437 442 306 309 308 -139 140 141 331 330 -143 144 233 234 232 235 -145 146 816 815 74 80 75 76 79 78 422 -150 149 248 250 246 249 247 313 312 311 314 -151 147 152 148 627 626 625 623 628 624 -160 161 162 163 164 559 560 558 -165 167 996 998 997 -166 553 554 515 514 -169 170 168 1006 1005 552 549 546 547 548 -172 171 174 173 336 335 338 337 333 916 915 -176 175 366 370 368 369 668 666 664 665 669 670 667 -184 186 185 188 187 189 183 634 640 637 638 639 635 636 -200 197 198 194 199 196 195 862 861 621 -207 203 204 205 206 576 577 397 400 399 398 854 852 853 303 302 301 -218 216 215 214 217 752 749 751 750 748 747 225 -221 220 222 219 356 357 353 355 354 593 594 1013 1012 -238 918 919 47 926 94 93 97 95 92 98 96 371 372 367 -241 242 245 243 240 244 239 821 820 822 823 824 -253 251 252 946 945 -254 256 255 395 396 390 394 393 389 392 391 755 757 756 753 -282 281 283 280 279 805 806 803 804 801 802 -291 284 288 11 14 16 12 15 611 610 608 612 613 609 -298 293 296 580 582 581 579 578 851 967 966 -300 575 201 202 574 -304 305 585 584 583 -310 307 527 866 868 870 872 867 873 871 869 -317 36 41 40 35 264 267 265 268 266 786 -318 912 914 46 539 541 540 43 42 44 917 -329 328 327 326 941 942 943 940 944 -334 237 236 908 909 -344 345 342 343 340 339 341 590 588 589 -346 348 350 349 347 842 844 845 841 840 843 -352 351 605 606 607 324 325 117 115 550 551 -361 365 360 362 446 443 445 705 702 699 701 700 -378 377 376 374 375 373 882 881 883 -380 379 770 771 769 -382 381 617 618 619 614 616 615 510 511 -385 383 758 762 760 761 759 566 567 568 -405 402 52 49 50 51 48 53 850 962 965 -408 409 411 410 406 407 622 620 -413 414 418 416 415 417 412 927 925 924 -423 419 420 421 808 811 814 809 812 810 813 -425 428 427 424 426 56 55 54 674 675 -432 431 533 529 528 532 531 530 783 787 784 785 -453 448 451 454 452 449 447 450 885 884 793 -462 21 18 663 660 658 662 659 657 661 -473 474 472 957 958 -497 498 496 500 499 960 959 961 -506 504 505 502 503 501 142 534 537 538 -508 509 507 512 796 794 797 795 798 799 800 -516 513 82 81 83 972 973 970 969 968 971 -517 518 519 964 963 -522 521 523 520 524 650 648 649 -535 536 332 731 729 734 730 733 732 -556 557 555 1023 274 1024 275 276 278 1022 1027 1026 277 1025 1007 1008 -561 563 562 778 780 782 779 781 777 490 494 491 493 495 492 774 776 -565 564 121 122 119 123 120 118 754 947 948 -572 571 573 569 570 359 358 363 364 939 938 937 693 690 -586 587 929 931 526 932 525 933 930 928 651 652 -591 592 458 455 457 456 9 10 832 -601 484 479 482 480 483 481 477 478 475 476 720 716 717 718 719 -604 600 603 602 599 846 847 848 849 -632 630 631 895 897 896 899 900 894 891 889 -673 676 671 672 680 679 677 678 682 681 -683 685 684 974 975 978 977 979 976 -686 155 153 156 154 157 159 158 855 856 857 -688 71 73 72 921 910 -709 707 708 706 763 767 765 772 773 775 -714 1030 1029 1028 1031 226 224 223 982 983 999 1000 -726 890 886 888 887 -735 737 736 109 826 825 -739 738 743 744 741 746 745 742 740 595 598 597 596 827 -788 789 935 934 936 -837 839 836 838 835 834 995 993 991 992 994 -865 864 863 902 906 905 904 903 907 -913 911 45 542 695 694 697 696 920 923 922 -956 955 980 981 1016 -989 713 710 711 715 712 1021 1019 1018 1015 1017 1020 -1001 1004 986 4 1 6 1011 1009 1010 1014 0 





OBJ=
5488.188
BEST_KNOWN=
0.000